(declare-const delta_mem_15 Int)
(declare-const delta_mem_15@width Int)
(declare-const delta_mem_14 Int)
(declare-const delta_key Int)
(declare-const delta_j Int)
(declare-const delta_mem_15@pos Int)
(declare-const delta_i Int)
(declare-const delta_mem_14@width Int)
(declare-const delta_mem_14@pos Int)
(assert (exists
         ((|key'?1| Int) (|j'?2| Int) (tr?3 Int) (tr?4 Int) (|mem_14'?5| Int)
            (|mem_15'?6| Int) (|mem_14@pos'?7| Int) (|mem_15@pos'?8| Int)
            (|mem_14@width'?9| Int) (|mem_15@width'?10| Int) (|i'?11| Int)
            (K?12 Int) (|mem_15@width'?13| Int) (|mem_14@width'?14| Int)
            (|mem_15@pos'?15| Int) (|mem_14@pos'?16| Int) (|mem_15'?17| Int)
            (|mem_14'?18| Int) (|i'?19| Int) (mem_14?20 Int) (mem_15?21 Int)
            (mem_14@pos?22 Int) (mem_15@pos?23 Int) (mem_14@width?24 Int)
            (mem_15@width?25 Int) (key?26 Int) (i?27 Int) (v@pos?28 Int)
            (v@width?29 Int) (j?30 Int) (SIZE?31 Int))
         (and (= v@pos?28 0) (<= (- v@width?29) 0) (<= (+ (- j?30) 1) 0)
                (<= (- SIZE?31) 0) (= (+ (* -4 SIZE?31) v@width?29) 0)
                (= v@pos?28 0) (<= (+ (- SIZE?31) j?30 1) 0)
                (= (+ |i'?11| K?12 (- j?30) 1) 0)
                (or (and (= K?12 0)
                           (= (+ (- |mem_15@width'?10|) mem_15@width?25) 0)
                           (= (+ (- |mem_14@width'?9|) mem_14@width?24) 0)
                           (= (+ (- |mem_15@pos'?8|) mem_15@pos?23) 0)
                           (= (+ (- |mem_14@pos'?7|) mem_14@pos?22) 0)
                           (= (+ (- |mem_15'?6|) mem_15?21) 0)
                           (= (+ (- |mem_14'?5|) mem_14?20) 0)
                           (= (+ (- |i'?11|) j?30 -1) 0))
                      (and (<= (+ (- K?12) 1) 0) (= v@pos?28 0)
                             (<= (+ (- j?30) 1) 0)
                             (<= (+ (- v@width?29) 1) 0) (= v@pos?28 0)
                             (<= (+ (- |i'?11|) -1) 0)
                             (<= (+ (- v@width?29) 1) 0))) (<= (- K?12) 0)
                (= v@pos?28 0) (<= (+ (- v@width?29) 1) 0) (= v@pos?28 0)
                (or (<= (+ |i'?11| 1) 0)
                      (and (<= (- |i'?11|) 0) (<= (+ (- tr?4) tr?3) 0)))
                (= (+ |mem_15@width'?13| (- |mem_15@width'?10|)) 0)
                (= (+ |mem_14@width'?14| (- |mem_14@width'?9|)) 0)
                (= (+ |mem_15@pos'?15| (- |mem_15@pos'?8|)) 0)
                (= (+ |mem_14@pos'?16| (- |mem_14@pos'?7|)) 0)
                (= (+ |mem_15'?17| (- |mem_15'?6|)) 0)
                (= (+ |mem_14'?18| (- |mem_14'?5|)) 0)
                (= (+ |key'?1| (- tr?4)) 0) (= (+ |j'?2| (- j?30) -1) 0)
                (= (+ |i'?19| (- |i'?11|)) 0)
                (= delta_i (+ |i'?19| (- i?27)))
                (= delta_j (+ |j'?2| (- j?30)))
                (= delta_key (+ |key'?1| (- key?26)))
                (= delta_mem_14 (+ |mem_14'?18| (- mem_14?20)))
                (= delta_mem_15 (+ |mem_15'?17| (- mem_15?21)))
                (= delta_mem_14@pos (+ |mem_14@pos'?16| (- mem_14@pos?22)))
                (= delta_mem_15@pos (+ |mem_15@pos'?15| (- mem_15@pos?23)))
                (= delta_mem_14@width (+ |mem_14@width'?14|
                                           (- mem_14@width?24)))
                (= delta_mem_15@width (+ |mem_15@width'?13|
                                           (- mem_15@width?25))))))
(check-sat)
